&CONTROL
   title = ' c111 slab ',
   calculation = 'cp'
   restart_mode='restart',
   ndr = 104,
   ndw = 105,
   nstep = 13000,
   iprint = 10,
   isave  = 100,
   tstress = .TRUE.,
   tprnfor = .TRUE.,
   dt = 4.0d0,
   etot_conv_thr=1.0e-5,
   forc_conv_thr=1.0e-4,
   ekin_conv_thr = 1.0e-6,
   prefix='c111-4by2-50%',
   pseudo_dir='../../PSEUDO/',
   outdir='./OUT/'
   max_seconds = 85800 
 /
&SYSTEM
   ibrav=0,
   celldm(1)=4.780425
   nat=240,
   ntyp=2,
   ecutwfc=25.0,
   ecutrho=250.0,
   nosym=.true.
   nr1b = 24,
   nr2b = 24,
   nr3b = 24
/
&ELECTRONS
   emass = 100.0d0
   emass_cutoff = 3.0d0
   conv_thr =  1.0d-6,
   orthogonalization = 'ortho'
   !!! dynamics
   electron_dynamics = 'verlet'
   electron_velocities = 'default'
   !!! thermostat
   electron_temperature = 'nose'
   fnosee=80
   ekincw=0.25D0
/
&IONS
!!! dynamics
   ion_dynamics='verlet'
   ion_velocities='default'
!!! for gfmd
   ion_temperature = 'not_controlled'
   tempw=300.0d0,
/
CELL_PARAMETERS
   4.000000000   0.00000000   0.000000000
   0.000000000   3.46410162   0.000000000
   0.000000000   0.00000000   10.4
ATOMIC_SPECIES
  C 12.01  C.pbe-van_bm.UPF
  H 2.0141 H.pbe-van_bm.UPF
ATOMIC_POSITIONS {alat}
H 1.500000000   0.866023386   8.574012341 !initial
H 1.000000000  -0.000004935   8.574011375 !initial
H 0.500000000   0.866023386   8.574012341 !initial !linking atom 3
H 0.000000000  -0.000004935   8.574011375 !initial !linking atom 4
H 3.499999 0.866023 8.574012
H 2.499999 0.866023 8.574012
H 2.999999 -0.000005 8.574011
H 1.999999 -0.000005 8.574011
H 1.500000 2.598073 8.574012
H 0.500000 2.598073 8.574012
H 1.000000 1.732045 8.574011
H 0.000000 1.732045 8.574011
H 3.499999 2.598073 8.574012
H 2.499999 2.598073 8.574012
H 2.999999 1.732045 8.574011
H 1.999999 1.732045 8.574011
C 1.500000 0.866026 8.133852
C 0.500000 0.866026 8.133852 !linking atom 18
C 1.000000 0.000002 8.133849
C 0.000000 0.000002 8.133849 !linking atom 20
C 1.000000 0.577349 7.940940
C 0.000000 0.577349 7.940940
C 0.500000 1.443375 7.940937
C 1.500000 1.443375 7.940937
C 0.500000 1.443376 7.326365
C 1.500000 1.443376 7.326365
C 0.000000 0.577351 7.326364
C 1.000000 0.577351 7.326364
C 1.500000 0.288674 7.123121
C 0.500000 0.288674 7.123121
C 1.000000 1.154699 7.123120
C 0.000000 1.154699 7.123120
C 1.500000 0.288675 6.508553
C 0.500000 0.288675 6.508553
C 1.000000 1.154701 6.508551
C 0.000000 1.154701 6.508551
C 1.000000 -0.000002 6.315641
C 0.000000 -0.000002 6.315641
C 1.500000 0.866023 6.315639
C 0.500000 0.866023 6.315639
H 1.500000 0.866027 5.875481
H 1.000000 -0.000005 4.574011
H 0.000000 -0.000005 4.574011
C 1.500000 0.866026 4.133852
C 0.500000 0.866026 4.133852
C 1.000000 0.000002 4.133849
C 0.000000 0.000002 4.133849
C 1.000000 0.577349 3.940940
C 0.000000 0.577349 3.940940
C 1.500000 1.443375 3.940937
C 0.500000 1.443375 3.940937
C 1.500000 1.443376 3.326365
C 0.500000 1.443376 3.326365
C 0.000000 0.577351 3.326364
C 1.000000 0.577351 3.326364
C 1.500000 0.288674 3.123121
C 0.500000 0.288674 3.123121
C 1.000000 1.154699 3.123120
C 0.000000 1.154699 3.123120
C 1.500000 0.288675 2.508553
C 0.500000 0.288675 2.508553
C 1.000000 1.154701 2.508551
C 0.000000 1.154701 2.508551
C 1.000000 -0.000002 2.315641 !linking atom 64
C 0.000000 -0.000002 2.315641
C 1.500000 0.866023 2.315639
C 0.500000 0.866023 2.315639 !linking atom 67
C 3.499999 0.866026 8.133852
C 2.499999 0.866026 8.133852
C 2.999999 0.000002 8.133849
C 1.999999 0.000002 8.133849
C 2.999999 0.577349 7.940940
C 1.999999 0.577349 7.940940
C 2.499999 1.443375 7.940937
C 3.499999 1.443375 7.940937
C 2.499999 1.443376 7.326365
C 3.499999 1.443376 7.326365
C 1.999999 0.577351 7.326364
C 2.999999 0.577351 7.326364
C 3.499999 0.288674 7.123121
C 2.499999 0.288674 7.123121
C 2.999999 1.154699 7.123120
C 1.999999 1.154699 7.123120
C 3.499999 0.288675 6.508553
C 2.499999 0.288675 6.508553
C 2.999999 1.154701 6.508551
C 1.999999 1.154701 6.508551
C 2.999999 -0.000002 6.315641
C 1.999999 -0.000002 6.315641
C 3.499999 0.866023 6.315639
C 2.499999 0.866023 6.315639
H 2.499999 0.866027 5.875481
H 3.499999 0.866023 4.574012
H 1.999999 -0.000005 4.574011
C 3.499999 0.866026 4.133852
C 2.499999 0.866026 4.133852
C 2.999999 0.000002 4.133849
C 1.999999 0.000002 4.133849
C 2.999999 0.577349 3.940940
C 1.999999 0.577349 3.940940
C 3.499999 1.443375 3.940937
C 2.499999 1.443375 3.940937
C 3.499999 1.443376 3.326365
C 2.499999 1.443376 3.326365
C 1.999999 0.577351 3.326364
C 2.999999 0.577351 3.326364
C 3.499999 0.288674 3.123121
C 2.499999 0.288674 3.123121
C 2.999999 1.154699 3.123120
C 1.999999 1.154699 3.123120
C 3.499999 0.288675 2.508553
C 2.499999 0.288675 2.508553
C 2.999999 1.154701 2.508551
C 1.999999 1.154701 2.508551
C 2.999999 -0.000002 2.315641
C 1.999999 -0.000002 2.315641
C 3.499999 0.866023 2.315639
C 2.499999 0.866023 2.315639
C 1.500000 2.598076 8.133852
C 0.500000 2.598076 8.133852
C 1.000000 1.732052 8.133849
C 0.000000 1.732052 8.133849
C 1.000000 2.309399 7.940940
C 0.000000 2.309399 7.940940
C 0.500000 3.175425 7.940937
C 1.500000 3.175425 7.940937
C 0.500000 3.175426 7.326365
C 1.500000 3.175426 7.326365
C 0.000000 2.309401 7.326364
C 1.000000 2.309401 7.326364
C 1.500000 2.020724 7.123121
C 0.500000 2.020724 7.123121
C 1.000000 2.886749 7.123120
C 0.000000 2.886749 7.123120
C 1.500000 2.020725 6.508553
C 0.500000 2.020725 6.508553
C 1.000000 2.886751 6.508551
C 0.000000 2.886751 6.508551
C 1.000000 1.732048 6.315641
C 0.000000 1.732048 6.315641
C 1.500000 2.598073 6.315639
C 0.500000 2.598073 6.315639
H 0.000000 1.732059 5.875482
H 0.500000 2.598077 5.875481
H 1.500000 2.598077 5.875481
H 0.500000 2.598073 4.574012
H 0.000000 1.732045 4.574011
C 1.500000 2.598076 4.133852
C 0.500000 2.598076 4.133852
C 1.000000 1.732052 4.133849
C 0.000000 1.732052 4.133849
C 1.000000 2.309399 3.940940
C 0.000000 2.309399 3.940940
C 1.500000 3.175425 3.940937
C 0.500000 3.175425 3.940937
C 1.500000 3.175426 3.326365
C 0.500000 3.175426 3.326365
C 0.000000 2.309401 3.326364
C 1.000000 2.309401 3.326364
C 1.500000 2.020724 3.123121
C 0.500000 2.020724 3.123121
C 1.000000 2.886749 3.123120
C 0.000000 2.886749 3.123120
C 1.500000 2.020725 2.508553
C 0.500000 2.020725 2.508553
C 1.000000 2.886751 2.508551
C 0.000000 2.886751 2.508551
C 1.000000 1.732048 2.315641
C 0.000000 1.732048 2.315641
C 1.500000 2.598073 2.315639
C 0.500000 2.598073 2.315639
C 3.499999 2.598076 8.133852
C 2.499999 2.598076 8.133852
C 2.999999 1.732052 8.133849
C 1.999999 1.732052 8.133849
C 2.999999 2.309399 7.940940
C 1.999999 2.309399 7.940940
C 2.499999 3.175425 7.940937
C 3.499999 3.175425 7.940937
C 2.499999 3.175426 7.326365
C 3.499999 3.175426 7.326365
C 1.999999 2.309401 7.326364
C 2.999999 2.309401 7.326364
C 3.499999 2.020724 7.123121
C 2.499999 2.020724 7.123121
C 2.999999 2.886749 7.123120
C 1.999999 2.886749 7.123120
C 3.499999 2.020725 6.508553
C 2.499999 2.020725 6.508553
C 2.999999 2.886751 6.508551
C 1.999999 2.886751 6.508551
C 2.999999 1.732048 6.315641
C 1.999999 1.732048 6.315641
C 3.499999 2.598073 6.315639
C 2.499999 2.598073 6.315639
H 2.999999 1.732059 5.875482
H 2.499999 2.598077 5.875481
H 3.499999 2.598077 5.875481
H 2.499999 2.598073 4.574012
H 1.999999 1.732045 4.574011
C 3.499999 2.598076 4.133852
C 2.499999 2.598076 4.133852
C 2.999999 1.732052 4.133849
C 1.999999 1.732052 4.133849
C 2.999999 2.309399 3.940940
C 1.999999 2.309399 3.940940
C 3.499999 3.175425 3.940937
C 2.499999 3.175425 3.940937
C 3.499999 3.175426 3.326365
C 2.499999 3.175426 3.326365
C 1.999999 2.309401 3.326364
C 2.999999 2.309401 3.326364
C 3.499999 2.020724 3.123121
C 2.499999 2.020724 3.123121
C 2.999999 2.886749 3.123120
C 1.999999 2.886749 3.123120
C 3.499999 2.020725 2.508553
C 2.499999 2.020725 2.508553
C 2.999999 2.886751 2.508551
C 1.999999 2.886751 2.508551
C 2.999999 1.732048 2.315641
C 1.999999 1.732048 2.315641
C 3.499999 2.598073 2.315639
C 2.499999 2.598073 2.315639
H 1.500000000   0.866027170   1.875480577 !initial
H 1.000000000   0.000008700   1.875482374 !initial !linking atom 226
H 0.500000000   0.866027170   1.875480577 !initial !linking atom 227
H 0.000000000   0.000008700   1.875482374 !initial 
H 2.999999 0.000009 1.875482
H 1.999999 0.000009 1.875482
H 2.499999 0.866027 1.875481
H 3.499999 0.866027 1.875481
H 1.000000 1.732059 1.875482
H 0.000000 1.732059 1.875482
H 0.500000 2.598077 1.875481
H 1.500000 2.598077 1.875481
H 2.999999 1.732059 1.875482
H 1.999999 1.732059 1.875482
H 2.499999 2.598077 1.875481
H 3.499999 2.598077 1.875481


K_POINTS {gamma}
